1512
34 23 43 91 79 44 90 84 47 83 72 30 24 17 92 85 28 1 33 36 67 82 81 26 53 25 88 87 10 52 73 50 35 12 97 78 31 18 5 48 7 66 54 74 69 9 42 60 99 93 27 75 38 19 71 16 22 13 95 4 76 80 86 68 40 55 51 49 98 57 96 63 39 65 2 20 32 46 62 11 59 37 3 58 14 61 70 41 6 15 21 45 64 56 94 89 8 77 29 
